CMD:
./solvers/bin/cadical --plain --no-reduce -t 1600 ./data/cnfs//cal118/cal118.29.cnf

c --- [ banner ] -------------------------------------------------------------
c 
c CaDiCaL SAT Solver
c Copyright (c) 2016-2024
c A. Biere, M. Fleury, N. Froleyks, K. Fazekas, F. Pollitt, T. Faller
c JKU Linz, University of Freiburg, TU Wien
c 
c Version 2.1.3 5296d3d2a9bf48c154ab2acb5e44625776d821bf
c g++ (Gentoo 12.3.1_p20230526 p2) 12.3.1 20230526 -Wall -Wextra -O3 -DNDEBUG
c Sat Aug 9 07:26:21 PDT 2025 Linux cedar2.int.cedar.computecanada.ca 5.14.0-362.24.2.el9_3.x86_64 x86_64
c 
c --- [ limit ] --------------------------------------------------------------
c 
c setting time limit to 1600 seconds real time (due to '-t 1600')
c 
c --- [ parsing input ] ------------------------------------------------------
c 
c reading DIMACS file from './data/cnfs//cal118/cal118.29.cnf'
c opening file to read './data/cnfs//cal118/cal118.29.cnf'
c found 'p cnf 810329 2302378' header
c parsed 2302378 clauses in 0.39 seconds process time
c 
c --- [ options ] ------------------------------------------------------------
c 
c   --compact=false                (different from default 'true')
c   --decompose=false              (different from default 'true')
c   --deduplicate=false            (different from default 'true')
c   --elim=false                   (different from default 'true')
c   --probe=false                  (different from default 'true')
c   --reduce=false                 (different from default 'true')
c   --subsume=false                (different from default 'true')
c   --ternary=false                (different from default 'true')
c   --transred=false               (different from default 'true')
c   --vivify=false                 (different from default 'true')
c 
c --- [ solving ] ------------------------------------------------------------
c 
c time measured in process time since initialization
c 
c  seconds   reductions  redundant   irredundant
c          MB    restarts       trail        variables
c           level   conflicts       glue           remaining
c 
c *  0.39 348  0 0   0    0    0  0% 0 2143311 774389 96%
c {  0.40 349  0 0   0    0    0  0% 0 2143311 774389 96%
c i  0.41 349 975 0   1  211  176  7% 3 2143311 774385 96%
c i  0.44 350 1059 0   7  267  228  7% 3 2143311 774380 96%
c i  0.45 351 1198 0   7  276  235  7% 3 2143311 774376 96%
c i  0.45 351 1375 0   7  285  242  8% 3 2143311 774372 96%
c i  0.46 351 1587 0   7  294  249  8% 3 2143311 774368 96%
c i  0.47 351 1830 0   7  303  256  9% 3 2143311 774364 96%
c i  0.48 351 2102 0   7  312  263  9% 3 2143311 774360 96%
c i  0.49 352 2400 0   7  321  270 10% 3 2143311 774356 96%
c i  0.49 353 2721 0   7  330  277 11% 3 2143311 774352 96%
c i  0.50 353 3064 0   7  339  284 12% 3 2143311 774348 96%
c i  0.51 353 3427 0   7  348  291 12% 3 2143311 774344 96%
c i  0.52 353 3808 0   7  357  298 13% 3 2143311 774340 96%
c i  0.53 353 4207 0   7  366  305 14% 3 2143311 774336 96%
c i  0.53 353 4621 0   7  375  312 15% 3 2143311 774332 96%
c i  0.54 354 5050 0   7  384  319 16% 3 2143311 774328 96%
c i  0.55 354 5492 0   7  393  326 17% 3 2143311 774324 96%
c i  0.56 354 5947 0   7  402  333 18% 3 2143311 774320 96%
c i  0.57 358 6413 0   7  411  340 19% 3 2143311 774316 96%
c 
c  seconds     reductions  redundant   irredundant
c          MB      restarts       trail        variables
c            level    conflicts       glue           remaining
c 
c i  0.58 358 6891 0   7  420  347 20% 3 2143311 774312 96%
c i  0.59 358 7378 0   7  429  354 21% 3 2143311 774308 96%
c i  0.60 358 7876 0   7  438  361 22% 3 2143311 774304 96%
c i  0.61 358 8382 0   7  447  368 23% 3 2143311 774300 96%
c i  0.62 358 8897 0   7  456  375 24% 3 2143311 774296 96%
c i  0.63 358 9419 0   7  465  382 25% 3 2143311 774292 96%
c i  0.64 358 9950 0   7  474  389 27% 3 2143311 774288 96%
c i  0.65 358 10487 0   7  483  396 28% 3 2143311 774284 96%
c i  0.66 358 11031 0   7  492  403 29% 3 2143311 774280 96%
c }  1.13 360 10938 0  37 1001  868 33% 3 2143311 774254 96%
c [  1.13 360  0 0  37 1001  868  0% 0 2143311 774254 96%
c O  1.15 360 1414 0  37 1002  869  8% 1 2143311 774254 96%
c ]  1.59 361 14887 0  38 3004 2662 41% 6 2143311 774254 96%
c {  1.59 361 10938 0  38 3004 2662 33% 3 2143311 774254 96%
c F  1.59 361 10926 0  39 3005 2663 33% 3 2143311 774254 96%
c i  5.10 363 4782 0 203 4667 4178 33% 4 2143311 773283 95%
c #  7.93 363 3216 0 380 6008 5401 29% 5 2143311 773283 95%
c i  7.93 363 3216 0 380 6008 5401 29% 5 2143311 773282 95%
c }  9.13 363 2573 0 434 7004 6307 27% 5 2143311 773282 95%
c [  9.13 363 14887 0 434 7004 6307 41% 6 2143311 773282 95%
c 
c  seconds      reductions  redundant   irredundant
c          MB       restarts       trail        variables
c             level    conflicts       glue           remaining
c 
c i  9.25 363 13542 0 435 7207 6487 40% 6 2143311 773281 95%
c i  9.91 364 9349 0 435 8528 7645 38% 7 2143311 773279 95%
c i  9.91 364 9346 0 435 8529 7645 38% 7 2143311 773278 95%
c i  9.92 364 9083 0 435 8628 7734 38% 7 2143311 773275 95%
... skipped 341 lines ...
c 
c   seconds     reductions         redundant     irredundant
c            MB      restarts              trail         variables
c              level       conflicts           glue            remaining
c 
c i 1326.19 780 143 0 66772 1580329 1379621 20% 15 2096009 772019 95%
c i 1329.06 780 145 0 66863 1582757 1381859 21% 15 2096009 772016 95%
c i 1329.14 780 145 0 66863 1582875 1381965 21% 15 2096009 772014 95%
c i 1330.20 780 146 0 66863 1584627 1383546 21% 15 2096009 772010 95%
c i 1330.30 780 146 0 66863 1584845 1383741 21% 15 2096009 772007 95%
c i 1330.30 780 146 0 66863 1584849 1383743 21% 15 2096009 772004 95%
c i 1335.11 780 142 0 67284 1590582 1388431 20% 15 2096009 772002 95%
c i 1335.67 780 144 0 67305 1591014 1388839 20% 15 2096009 772001 95%
c W 1342.57 801 143 0 67584 1596119 1393501 20% 15 2095704 772001 95%
c i 1343.15 801 143 0 67602 1596697 1394046 20% 15 2095704 771998 95%
c i 1369.27 801 147 0 69130 1624315 1418398 21% 14 2095704 771996 95%
c i 1373.70 801 152 0 69314 1628573 1422188 21% 14 2095704 771992 95%
c i 1374.96 801 155 0 69314 1629938 1423314 21% 14 2095704 771989 95%
c i 1375.15 801 156 0 69320 1630082 1423444 21% 14 2095704 771986 95%
c i 1375.41 801 155 0 69320 1630742 1424063 21% 14 2095704 771983 95%
c i 1377.08 801 155 0 69392 1632488 1425654 21% 14 2095704 771981 95%
c i 1378.37 801 155 0 69403 1634197 1427216 21% 14 2095704 771978 95%
c i 1385.25 801 159 0 70008 1641511 1433754 21% 14 2095704 771976 95%
c i 1385.27 801 159 0 70008 1641540 1433782 21% 14 2095704 771973 95%
c i 1388.66 801 160 0 70116 1644195 1436183 21% 14 2095704 771970 95%
c 
c   seconds     reductions         redundant     irredundant
c            MB      restarts              trail         variables
c              level       conflicts           glue            remaining
c 
c i 1394.50 801 167 0 70363 1649551 1440918 22% 14 2095704 771967 95%
c i 1394.52 801 167 0 70363 1649660 1441020 22% 14 2095704 771964 95%
c # 1400.23 801 168 0 70556 1653120 1444205 22% 14 2095704 771964 95%
c i 1400.88 801 168 0 70593 1653736 1444783 22% 14 2095704 771962 95%
c B 1456.37 801 141 0 76186 1711121 1483450 21% 15 2095704 771961 95%
c i 1467.11 803 136 0 76460 1722023 1493185 21% 14 2095704 771958 95%
c i 1467.11 803 136 0 76460 1722047 1493206 21% 14 2095704 771955 95%
c i 1467.13 803 136 0 76460 1722114 1493264 21% 14 2095704 771952 95%
c i 1477.61 806 136 0 77094 1733217 1502696 21% 14 2095704 771950 95%
c i 1480.00 807 136 0 77137 1735792 1505048 21% 14 2095704 771946 95%
c i 1480.35 807 138 0 77137 1736558 1505725 21% 14 2095704 771943 95%
c i 1481.00 808 142 0 77139 1737806 1506856 21% 14 2095704 771940 95%
c W 1504.51 838 124 0 78703 1770125 1535019 20% 13 2095501 771940 95%
c F 1580.21 840 126 0 82640 1830127 1588482 20% 13 2095501 771940 95%
c } 1589.39 840 125 0 83350 1836740 1594172 20% 13 2095501 771940 95%
c ? 1589.39 840 125 0 83350 1836740 1594172 20% 13 2095501 771940 95%
c 
c --- [ result ] -------------------------------------------------------------
c 
c UNKNOWN
c 
c --- [ run-time profiling ] -------------------------------------------------
c 
c process time taken by individual solving procedures
c (percentage relative to process time for solving)
c 
c      1589.01  100.00% search
c      1183.37   74.47% unstable
c       394.05   24.80% stable
c        11.57    0.73% walk
c         0.39    0.02% parse
c         0.01    0.00% lucky
c         0.00    0.00% simplify
c   =================================
c      1589.01   99.98% solve
c 
c last line shows process time for solving
c (percentage relative to total process time)
c 
c --- [ statistics ] ---------------------------------------------------------
c 
c chronological:            748653        40.76 %  of conflicts
c conflicts:               1836740      1155.90    per second
c decisions:              10687076      6725.64    per second
c fixed:                     38388         4.74 %  of all variables
c learned:                 1770238        96.38 %  per conflict
c learned_lits:          194574819       100.00 %  learned literals
c minimized:                     0         0.00 %  learned literals
c shrunken:               88275597        45.37 %  learned literals
c minishrunken:           31917880        16.40 %  learned literals
c otfs:                       6625         0.36 %  of conflict
c propagations:        12332490270         7.76 M  per second
c rephased:                     60     30612.33    interval
c restarts:                  83350        22.04    interval
c stabilizing:                   5        37.12 %  of conflicts
c subsumed:                 175478         4.48 %  of all clauses
c strengthened:               6333         0.16 %  of all clauses
c walked:                       19     96670.53    interval
c 
c seconds are measured in process time for solving
c 
c --- [ resources ] ----------------------------------------------------------
c 
c total process time since initialization:      1589.39    seconds
c total real time since initialization:         1600.00    seconds
c maximum resident set size of process:         1174.73    MB
c 
c --- [ shutting down ] ------------------------------------------------------
c 
c exit 0
